
%FILE DATA:	Soccer Computational Problem for MiniZinc Models	%
%AUTHOR:	Jack Wall	%
%CONTACT:  	116397063@umail.ucc.ie			%
%LAST UPDATE:	03/03/2020, 16:02:56						%
%DESCRIPTION: 	36 games played with 20 games left				%


n=8; %number of teams

%Games to play
games=[|5,6|8,5|5,8|8,3|1,8|6,1|3,8|8,7|8,4|4,8|2,5|7,1|3,6|4,3|8,1|5,4|4,1|7,5|8,2|7,6|];

%Initial points
iPoints=[9,14,14,15,11,14,12,6];

%POSITION CONSTRAINTS
% [|teamID, operator, position|...]
% operators index:
%  1 for =  operator
%  2 for >  operator
%  3 for >= operator
%  4 for <  operator
%  5 for <= operator
positionConstraints=[|8,4,2|4,1,2|];